c nIsolatedPIs 0
c maxPI 32
p cnf 99 202
c gate 33 -11 -27 0
-11 -33 0
-27 -33 0
11 27 33 0
c gate 34 11 27 0
11 -34 0
27 -34 0
-11 -27 34 0
c gate 35 -33 -34 0
-33 -35 0
-34 -35 0
33 34 35 0
c gate 36 10 -26 0
10 -36 0
-26 -36 0
-10 26 36 0
c gate 37 8 -24 0
8 -37 0
-24 -37 0
-8 24 37 0
c gate 38 9 25 0
9 -38 0
25 -38 0
-9 -25 38 0
c gate 39 -9 -25 0
-9 -39 0
-25 -39 0
9 25 39 0
c gate 40 -38 -39 0
-38 -40 0
-39 -40 0
38 39 40 0
c gate 41 -37 -40 0
-37 -41 0
-40 -41 0
37 40 41 0
c gate 42 -10 26 0
-10 -42 0
26 -42 0
10 -26 42 0
c gate 43 -9 25 0
-9 -43 0
25 -43 0
9 -25 43 0
c gate 44 -42 -43 0
-42 -44 0
-43 -44 0
42 43 44 0
c gate 45 -41 44 0
-41 -45 0
44 -45 0
41 -44 45 0
c gate 46 -36 -45 0
-36 -46 0
-45 -46 0
36 45 46 0
c gate 47 -7 23 0
-7 -47 0
23 -47 0
7 -23 47 0
c gate 48 6 -22 0
6 -48 0
-22 -48 0
-6 22 48 0
c gate 49 7 -23 0
7 -49 0
-23 -49 0
-7 23 49 0
c gate 50 -48 -49 0
-48 -50 0
-49 -50 0
48 49 50 0
c gate 51 -2 18 0
-2 -51 0
18 -51 0
2 -18 51 0
c gate 52 -1 17 0
-1 -52 0
17 -52 0
1 -17 52 0
c gate 53 -51 -52 0
-51 -53 0
-52 -53 0
51 52 53 0
c gate 54 2 -18 0
2 -54 0
-18 -54 0
-2 18 54 0
c gate 55 3 -19 0
3 -55 0
-19 -55 0
-3 19 55 0
c gate 56 -54 -55 0
-54 -56 0
-55 -56 0
54 55 56 0
c gate 57 -53 56 0
-53 -57 0
56 -57 0
53 -56 57 0
c gate 58 -4 20 0
-4 -58 0
20 -58 0
4 -20 58 0
c gate 59 -3 19 0
-3 -59 0
19 -59 0
3 -19 59 0
c gate 60 -58 -59 0
-58 -60 0
-59 -60 0
58 59 60 0
c gate 61 -57 60 0
-57 -61 0
60 -61 0
57 -60 61 0
c gate 62 5 -21 0
5 -62 0
-21 -62 0
-5 21 62 0
c gate 63 4 -20 0
4 -63 0
-20 -63 0
-4 20 63 0
c gate 64 -62 -63 0
-62 -64 0
-63 -64 0
62 63 64 0
c gate 65 -61 64 0
-61 -65 0
64 -65 0
61 -64 65 0
c gate 66 -6 22 0
-6 -66 0
22 -66 0
6 -22 66 0
c gate 67 -48 -66 0
-48 -67 0
-66 -67 0
48 66 67 0
c gate 68 -5 21 0
-5 -68 0
21 -68 0
5 -21 68 0
c gate 69 67 -68 0
67 -69 0
-68 -69 0
-67 68 69 0
c gate 70 -65 69 0
-65 -70 0
69 -70 0
65 -69 70 0
c gate 71 50 -70 0
50 -71 0
-70 -71 0
-50 70 71 0
c gate 72 -47 -71 0
-47 -72 0
-71 -72 0
47 71 72 0
c gate 73 8 24 0
8 -73 0
24 -73 0
-8 -24 73 0
c gate 74 -8 -24 0
-8 -74 0
-24 -74 0
8 24 74 0
c gate 75 -73 -74 0
-73 -75 0
-74 -75 0
73 74 75 0
c gate 76 72 -75 0
72 -76 0
-75 -76 0
-72 75 76 0
c gate 77 44 76 0
44 -77 0
76 -77 0
-44 -76 77 0
c gate 78 46 -77 0
46 -78 0
-77 -78 0
-46 77 78 0
c gate 79 -35 78 0
-35 -79 0
78 -79 0
35 -78 79 0
c gate 80 -15 -31 0
-15 -80 0
-31 -80 0
15 31 80 0
c gate 81 15 31 0
15 -81 0
31 -81 0
-15 -31 81 0
c gate 82 -80 -81 0
-80 -82 0
-81 -82 0
80 81 82 0
c gate 83 -14 -30 0
-14 -83 0
-30 -83 0
14 30 83 0
c gate 84 14 30 0
14 -84 0
30 -84 0
-14 -30 84 0
c gate 85 -83 -84 0
-83 -85 0
-84 -85 0
83 84 85 0
c gate 86 -82 -85 0
-82 -86 0
-85 -86 0
82 85 86 0
c gate 87 -13 -29 0
-13 -87 0
-29 -87 0
13 29 87 0
c gate 88 13 29 0
13 -88 0
29 -88 0
-13 -29 88 0
c gate 89 -87 -88 0
-87 -89 0
-88 -89 0
87 88 89 0
c gate 90 12 28 0
12 -90 0
28 -90 0
-12 -28 90 0
c gate 91 -12 -28 0
-12 -91 0
-28 -91 0
12 28 91 0
c gate 92 -90 -91 0
-90 -92 0
-91 -92 0
90 91 92 0
c gate 93 -16 -32 0
-16 -93 0
-32 -93 0
16 32 93 0
c gate 94 16 32 0
16 -94 0
32 -94 0
-16 -32 94 0
c gate 95 -93 -94 0
-93 -95 0
-94 -95 0
93 94 95 0
c gate 96 -92 -95 0
-92 -96 0
-95 -96 0
92 95 96 0
c gate 97 -89 96 0
-89 -97 0
96 -97 0
89 -96 97 0
c gate 98 86 97 0
86 -98 0
97 -98 0
-86 -97 98 0
c gate 99 79 98 0
79 -99 0
98 -99 0
-79 -98 99 0
c PO
99 0
